NAME: PointSet_Angle_60_1
TYPE: TSP
COMMENT: Points chosen discrete uniformly at random out of ${0, \ldots, 500}^2$.
DIMENSION: 60
EDGE_WEIGHT_TYPE: EUC_2D
NODE_COORD_SECTION
1 341 165
2 320 89
3 255 224
4 219 319
5 247 164
6 435 18
7 314 32
8 399 496
9 450 47
10 41 332
11 426 14
12 336 346
13 42 13
14 43 133
15 493 210
16 417 334
17 375 236
18 169 377
19 207 388
20 195 454
21 298 376
22 218 111
23 409 116
24 106 358
25 411 395
26 189 336
27 409 272
28 428 197
29 31 217
30 331 24
31 427 247
32 104 48
33 230 273
34 425 437
35 407 366
36 136 205
37 241 354
38 316 149
39 216 169
40 253 126
41 63 189
42 208 218
43 461 136
44 416 238
45 353 493
46 262 280
47 239 112
48 74 215
49 131 499
50 151 38
51 364 33
52 243 351
53 387 305
54 247 103
55 474 500
56 476 283
57 435 184
58 248 395
59 66 410
60 380 419
EOF
